 vasp.5.4.4.18Apr17-6-g9f103f2a35 (build Apr 27 2017 09:43:28) complex

 executed on    KNLVTST17noSOLomp date 2023.05.25  00:09:31

 INCAR:
 POTCAR:    PAW_PBE Zn 06Sep2000
 POTCAR:    PAW_PBE Cu 22Jun2005
 POTCAR:    PAW_PBE O 08Apr2002
 POTCAR:    PAW_PBE C 08Apr2002
 POTCAR:    PAW_PBE H 15Jun2001

 POTCAR:    PAW_PBE Zn 06Sep2000
   VRHFIN =Zn: d10 p2

   TITEL  = PAW_PBE Zn 06Sep2000
   POMASS =   65.390; ZVAL   =   12.000    mass and valenz
   ENMAX  =  276.723; ENMIN  =  207.542 eV

 POTCAR:    PAW_PBE Cu 22Jun2005
   VRHFIN =Cu: d10 p1

   TITEL  = PAW_PBE Cu 22Jun2005
   POMASS =   63.546; ZVAL   =   11.000    mass and valenz
   ENMAX  =  295.446; ENMIN  =  221.585 eV

 POTCAR:    PAW_PBE O 08Apr2002
   VRHFIN =O: s2p4

   TITEL  = PAW_PBE O 08Apr2002
   POMASS =   16.000; ZVAL   =    6.000    mass and valenz
   ENMAX  =  400.000; ENMIN  =  300.000 eV

 POTCAR:    PAW_PBE C 08Apr2002
   VRHFIN =C: s2p2

   TITEL  = PAW_PBE C 08Apr2002
   POMASS =   12.011; ZVAL   =    4.000    mass and valenz
   ENMAX  =  400.000; ENMIN  =  300.000 eV

 POTCAR:    PAW_PBE H 15Jun2001
   VRHFIN =H: ultrasoft test

   TITEL  = PAW_PBE H 15Jun2001
   POMASS =    1.000; ZVAL   =    1.000    mass and valenz
   ENMAX  =  250.000; ENMIN  =  200.000 eV

 Optimization of the real space projectors (new method)

 maximal supplied QI-value         = 16.25
 optimisation between [QCUT,QGAM] = [ 10.24, 20.48] = [ 29.35,117.42] Ry
 Optimized for a Real-space Cutoff    1.38 Angstroem

   l    n(q)    QCUT    max X(q) W(low)/X(q) W(high)/X(q)  e(spline)
   2      7    10.239    46.356    0.21E-03    0.48E-03    0.10E-06
   2      7    10.239    41.843    0.21E-03    0.50E-03    0.10E-06
   0      8    10.239    48.958    0.37E-03    0.79E-04    0.11E-06
   0      8    10.239    32.776    0.35E-03    0.73E-04    0.10E-06
   1      8    10.239    17.787    0.49E-03    0.70E-03    0.14E-06
   1      8    10.239    14.435    0.42E-03    0.61E-03    0.13E-06
 Optimization of the real space projectors (new method)

[...]

   l    n(q)    QCUT    max X(q) W(low)/X(q) W(high)/X(q)  e(spline)
   0      8    10.053   115.676    0.49E-03    0.72E-03    0.18E-06
   0      8    10.053    87.132    0.49E-03    0.71E-03    0.18E-06
   1      7    10.053     4.429    0.32E-03    0.31E-03    0.18E-06
   1      7    10.053     2.733    0.23E-03    0.19E-03    0.20E-06
 Optimization of the real space projectors (new method)

 maximal supplied QI-value         = 34.20
 optimisation between [QCUT,QGAM] = [  9.92, 20.18] = [ 27.55,114.04] Ry
 Optimized for a Real-space Cutoff    1.26 Angstroem

   l    n(q)    QCUT    max X(q) W(low)/X(q) W(high)/X(q)  e(spline)
   0      8     9.919    19.460    0.50E-03    0.23E-03    0.29E-06
   0      8     9.919    12.209    0.48E-03    0.23E-03    0.28E-06
   1      7     9.919     4.655    0.17E-03    0.75E-03    0.30E-06
  PAW_PBE Zn 06Sep2000                  :
  PAW_PBE Cu 22Jun2005                  :
  PAW_PBE O 08Apr2002                   :
  PAW_PBE C 08Apr2002                   :
  PAW_PBE H 15Jun2001                   :

 POSCAR: Zn Cu  O  C  H
  positions in cartesian coordinates
 exchange correlation table for  LEXCH =        8
   RHO(1)=    0.500       N(1)  =     2000
   RHO(2)=  100.500       N(2)  =     4000

 VTST: version 3.1, (03/28/14)

 CHAIN: initializing optimizer

 OPT: Using VASP Conjugate-Gradient optimizer
 CHAIN: Read ICHAIN            0

 POSCAR: Zn Cu  O  C  H
  positions in cartesian coordinates

 ion  position               nearest neighbor table
   1  0.067  0.133  0.048-  27 2.59 111 2.59   5 2.59  91 2.59  18 2.59  23 2.59   2 2.93  92 2.93
                             6 2.93
   2  0.133  0.067  0.144-  28 2.59 112 2.59   6 2.59  19 2.59  92 2.59  24 2.59  20 2.77   3 2.79
                            25 2.79   1 2.93  23 2.93  18 2.93
   3  0.067  0.134  0.234-  29 2.59  25 2.59   7 2.59  20 2.59 113 2.59  93 2.59 117 2.62   4 2.70
                            94 2.72   6 2.78   2 2.79  92 2.79
   4  0.136  0.072  0.321- 117 2.55 120 2.55 119 2.56 116 2.56  26 2.60  94 2.60 114 2.62  21 2.64
                             3 2.70  25 2.70  20 2.76  22 2.85
   5  0.067  0.333  0.048-  91 2.59  30 2.59   1 2.59  96 2.59   8 2.59  27 2.59   6 2.93  97 2.93
                             9 2.93
   6  0.133  0.267  0.144-  31 2.59  92 2.59   9 2.59   2 2.59  28 2.59  97 2.59   3 2.78   7 2.79
                            29 2.83   5 2.93  27 2.93   1 2.93
   7  0.067  0.333  0.234-  32 2.59  29 2.59   3 2.59  10 2.59  98 2.59  93 2.59 117 2.62  11 2.70
                            99 2.72   6 2.79   9 2.79  97 2.79
   8  0.067  0.533  0.048-  33 2.59  96 2.59  13 2.59 101 2.59   5 2.59  30 2.59   9 2.93 102 2.93
                            14 2.93
   9  0.133  0.467  0.144-  97 2.59  34 2.59   6 2.59  14 2.59  31 2.59 102 2.59  10 2.77   7 2.79
                            32 2.79   8 2.93  30 2.93   5 2.93
  10  0.067  0.534  0.233-  35 2.58  32 2.59  98 2.59  15 2.59 103 2.59   7 2.59 104 2.74  11 2.76
                            14 2.77   9 2.77 102 2.77  16 2.80
  11  0.135  0.464  0.321- 117 2.55 122 2.55 123 2.56 118 2.56  99 2.59  36 2.59 104 2.62  16 2.63
                            32 2.70   7 2.70  10 2.76  12 2.87
  12  0.071  0.528  0.416- 118 2.55 123 2.55  37 2.56 100 2.56 105 2.67  17 2.74  16 2.87  11 2.87
                           104 2.93
  13  0.067  0.733  0.048- 101 2.59  38 2.59   8 2.59 106 2.59  18 2.59  33 2.59  14 2.93 107 2.93
                            19 2.93
  14  0.133  0.667  0.144-  39 2.59 102 2.59  19 2.59   9 2.59  34 2.59 107 2.59  35 2.76  10 2.77
                            15 2.83  13 2.93  33 2.93   8 2.93
  15  0.066  0.733  0.236- 103 2.57 108 2.57  35 2.59  40 2.59  10 2.59  20 2.59  21 2.75  16 2.75
                           109 2.82 107 2.82  14 2.83  19 2.83
  16  0.133  0.666  0.324- 109 2.57 104 2.58  41 2.59  21 2.59  36 2.60  11 2.63  15 2.75  37 2.80
                            10 2.80  35 2.80  12 2.87
  17  0.066  0.733  0.436- 127 2.08 110 2.63 105 2.63  42 2.65  37 2.66  22 2.74  12 2.74
  18  0.067  0.933  0.048- 106 2.59  23 2.59 111 2.59  13 2.59   1 2.59  38 2.59  19 2.93 112 2.93
                             2 2.93
  19  0.133  0.867  0.144- 107 2.59  24 2.59  14 2.59   2 2.59  39 2.59 112 2.59  40 2.76  20 2.76
                            15 2.83  18 2.93  38 2.93  13 2.93
  20  0.067  0.933  0.233-  40 2.58  25 2.59 113 2.59  15 2.59 108 2.59   3 2.59 114 2.74   4 2.76
                            19 2.76   2 2.77 112 2.77  21 2.80
  21  0.133  0.867  0.324- 109 2.57 114 2.59  41 2.59  16 2.59  26 2.60   4 2.64  15 2.75  42 2.80
                            40 2.80  20 2.80  22 2.83
  22  0.071  0.942  0.414- 116 2.55 119 2.55  42 2.56 115 2.57 110 2.68  17 2.74  21 2.83   4 2.85
                           114 2.89
  23  0.267  0.133  0.048-  48 2.59  18 2.59  27 2.59  38 2.59  43 2.59   1 2.59  24 2.93   2 2.93
                            28 2.93
  24  0.333  0.067  0.144-  49 2.59  19 2.59  44 2.59  28 2.59  39 2.59   2 2.59  45 2.76  40 2.77
                            25 2.79  23 2.93  43 2.93  38 2.93
  25  0.267  0.134  0.234-  50 2.59  45 2.59   3 2.59  29 2.59  20 2.59  40 2.59 120 2.62   4 2.70
                            26 2.71  28 2.79   2 2.79  24 2.79
  26  0.334  0.068  0.320-  51 2.57 120 2.57  46 2.59 119 2.59   4 2.60  41 2.60  21 2.60  25 2.71
                            45 2.73  40 2.74  47 2.85  42 2.88
  27  0.267  0.333  0.048-   1 2.59  52 2.59  23 2.59  30 2.59  48 2.59   5 2.59  28 2.93   6 2.93
                            31 2.93
  28  0.333  0.267  0.144-  53 2.59   2 2.59  31 2.59  49 2.59  24 2.59   6 2.59  50 2.78  25 2.79
                            29 2.83  27 2.93  48 2.93  23 2.93
  29  0.267  0.333  0.236-  50 2.58  54 2.58   3 2.59   7 2.59  25 2.59  32 2.59 117 2.60 120 2.60
                           122 2.60  28 2.83   6 2.83  31 2.83
  30  0.267  0.533  0.048-  56 2.59   5 2.59  33 2.59  27 2.59  52 2.59   8 2.59  31 2.93   9 2.93
                            34 2.93
  31  0.333  0.467  0.144-   6 2.59  57 2.59  28 2.59  53 2.59  34 2.59   9 2.59  54 2.78  32 2.79
                            29 2.83  30 2.93  52 2.93  27 2.93
  32  0.267  0.533  0.234-  58 2.59  54 2.59   7 2.59  10 2.59  35 2.59  29 2.59 122 2.62  11 2.70
                            36 2.71  31 2.79  34 2.79   9 2.79
  33  0.267  0.733  0.048-   8 2.59  61 2.59  30 2.59  38 2.59  56 2.59  13 2.59  34 2.93  14 2.93
                            39 2.93
  34  0.333  0.667  0.144-  62 2.59   9 2.59  39 2.59  57 2.59  31 2.59  14 2.59  58 2.76  35 2.77
                            32 2.79  33 2.93  56 2.93  30 2.93
  35  0.266  0.733  0.233-  10 2.58  15 2.59  32 2.59  40 2.59  63 2.59  58 2.60  36 2.74  41 2.75
                            14 2.76  34 2.77  39 2.77  16 2.80
  36  0.334  0.666  0.321-  59 2.57 122 2.57  64 2.59  11 2.59 123 2.59  41 2.60  16 2.60  32 2.71
                            58 2.73  35 2.74  60 2.85  37 2.88
  37  0.265  0.729  0.415-  12 2.56  60 2.58  65 2.61 123 2.62  17 2.66  42 2.67  16 2.80  36 2.88
                            41 2.90
  38  0.267  0.933  0.048-  13 2.59  43 2.59  33 2.59  23 2.59  18 2.59  61 2.59  39 2.93  19 2.93
                            24 2.93
  39  0.333  0.867  0.144-  14 2.59  44 2.59  34 2.59  62 2.59  24 2.59  19 2.59  63 2.76  40 2.77
                            35 2.77  38 2.93  61 2.93  33 2.93
  40  0.266  0.933  0.233-  20 2.58  15 2.59  35 2.59  25 2.59  63 2.59  45 2.60  26 2.74  41 2.75
                            19 2.76  24 2.77  39 2.77  21 2.80
  41  0.333  0.867  0.321-  21 2.59  64 2.59  46 2.59  16 2.59  36 2.60  26 2.60  63 2.75  35 2.75
                            40 2.75  65 2.89  42 2.89  37 2.90
  42  0.265  0.935  0.415-  22 2.56  47 2.58  65 2.61 119 2.62  17 2.65  37 2.67  21 2.80  26 2.88
                            41 2.89
  43  0.467  0.133  0.048-  71 2.59  38 2.59  48 2.59  66 2.59  61 2.59  23 2.59  44 2.93  24 2.93
                            49 2.93
  44  0.533  0.067  0.144-  39 2.59  72 2.59  24 2.59  62 2.59  49 2.59  67 2.59  63 2.76  45 2.76
                            68 2.76  43 2.93  66 2.93  61 2.93
  45  0.466  0.133  0.233-  25 2.59  50 2.59  63 2.59  68 2.59  40 2.60  73 2.60  26 2.73  51 2.73
                            46 2.75  24 2.76  49 2.76  44 2.76
  46  0.534  0.067  0.321-  69 2.58  64 2.58  74 2.59  26 2.59  51 2.59  41 2.59  68 2.74  63 2.75
                            45 2.75  65 2.91  70 2.92  47 2.92
  47  0.462  0.137  0.414- 119 2.55 124 2.55  75 2.57  42 2.58  65 2.67  70 2.68  26 2.85  51 2.85
                            46 2.92
  48  0.467  0.333  0.048-  23 2.59  76 2.59  43 2.59  71 2.59  52 2.59  27 2.59  49 2.93  28 2.93
                            53 2.93
  49  0.533  0.267  0.144-  24 2.59  77 2.59  53 2.59  28 2.59  44 2.59  72 2.59  73 2.76  45 2.76
                            50 2.79  48 2.93  71 2.93  43 2.93
  50  0.466  0.333  0.234-  54 2.58  29 2.58  25 2.59  45 2.59  78 2.59  73 2.60 120 2.62  55 2.70
                            51 2.71  28 2.78  53 2.79  49 2.79
  51  0.533  0.266  0.321-  26 2.57 120 2.57  46 2.59 124 2.59  55 2.59  74 2.60  79 2.60  50 2.71
[...]
   0.514E-02 0.680E+00 0.482E+04   0.610E-01 -.666E+00 -.482E+04   -.429E-01 -.108E-01 0.215E+01   -.883E-05 -.702E-05 0.276E-04
   0.634E+00 0.363E+01 0.250E+04   -.640E+00 -.352E+01 -.250E+04   0.258E-02 -.528E-01 0.157E+01   -.129E-04 0.190E-04 0.768E-05
   0.131E+02 0.329E+02 0.504E+02   -.132E+02 -.327E+02 -.496E+02   0.681E-01 -.198E+00 -.801E+00   0.960E-07 0.548E-04 -.329E-04
   0.277E+01 0.857E+02 -.243E+04   -.284E+01 -.841E+02 0.243E+04   0.737E-01 -.162E+01 -.196E+01   -.102E-03 0.301E-04 -.770E-04
   0.408E+00 -.266E+00 0.482E+04   -.370E+00 0.329E+00 -.482E+04   -.336E-01 -.463E-01 0.214E+01   -.114E-04 -.266E-05 0.338E-04
   -.228E+01 -.135E+01 0.250E+04   0.254E+01 0.150E+01 -.250E+04   -.195E+00 -.111E+00 0.131E+01   -.217E-04 -.456E-05 0.619E-04
   0.331E+02 -.459E+01 0.506E+02   -.330E+02 0.446E+01 -.498E+02   -.131E+00 0.128E+00 -.825E+00   0.561E-04 0.162E-04 -.118E-04
   0.136E+01 -.103E+01 0.482E+04   -.132E+01 0.102E+01 -.482E+04   -.380E-01 0.844E-02 0.214E+01   0.450E-04 -.315E-04 0.671E-04
   0.278E+01 -.171E+01 0.250E+04   -.269E+01 0.165E+01 -.250E+04   -.468E-01 0.265E-01 0.156E+01   0.118E-04 -.138E-04 0.254E-04
   0.279E+02 -.207E+02 0.166E+02   -.277E+02 0.207E+02 -.164E+02   -.243E+00 -.451E-01 -.150E+00   -.693E-06 0.303E-04 0.111E-04
   0.756E+02 -.397E+02 -.243E+04   -.743E+02 0.389E+02 0.244E+04   -.128E+01 0.834E+00 -.201E+01   0.159E-03 -.907E-05 -.506E-04
   -.393E+02 0.609E+02 -.481E+04   0.413E+02 -.617E+02 0.481E+04   -.201E+01 0.810E+00 -.179E+01   0.129E-03 0.336E-05 0.430E-04
   0.766E+00 0.335E+00 0.482E+04   -.893E+00 -.415E+00 -.482E+04   0.105E+00 0.713E-01 0.231E+01   -.172E-04 -.102E-04 0.776E-04
   0.128E+02 -.478E+01 0.249E+04   -.130E+02 0.481E+01 -.249E+04   0.157E+00 -.715E-02 0.177E+01   0.117E-04 -.240E-04 0.533E-04
   0.122E+02 0.615E+01 -.703E+02   -.123E+02 -.623E+01 0.703E+02   0.115E+00 0.834E-01 0.262E-01   -.174E-04 -.364E-04 0.174E-04
   0.471E+02 -.208E+02 -.256E+04   -.474E+02 0.206E+02 0.256E+04   0.353E+00 0.119E+00 -.568E+00   0.687E-04 -.696E-04 -.104E-03
   0.692E+01 -.407E+02 -.482E+04   -.667E+01 0.407E+02 0.483E+04   -.245E+00 0.198E-01 -.584E+01   -.393E-04 -.411E-04 0.792E-05
   0.334E-02 0.174E+01 0.482E+04   0.144E-01 -.171E+01 -.482E+04   -.151E-01 -.325E-01 0.215E+01   -.463E-05 0.544E-04 0.603E-04
   0.285E+01 0.138E+02 0.249E+04   -.293E+01 -.140E+02 -.249E+04   0.718E-01 0.153E+00 0.178E+01   -.119E-04 0.118E-04 0.417E-04
   -.271E+01 0.345E+02 0.168E+02   0.286E+01 -.343E+02 -.167E+02   -.151E+00 -.188E+00 -.126E+00   0.159E-04 -.354E-04 -.177E-04
   0.643E+01 0.481E+02 -.256E+04   -.666E+01 -.484E+02 0.256E+04   0.221E+00 0.295E+00 -.594E+00   -.242E-04 0.306E-04 -.108E-03
   0.295E+02 -.559E+02 -.482E+04   -.292E+02 0.581E+02 0.482E+04   -.301E+00 -.222E+01 -.218E+01   -.396E-04 0.598E-04 0.708E-04
   0.417E+00 0.881E+00 0.482E+04   -.446E+00 -.721E+00 -.482E+04   0.308E-01 -.127E+00 0.219E+01   0.232E-04 0.383E-05 0.195E-04
   0.257E+01 0.380E+01 0.250E+04   -.272E+01 -.371E+01 -.250E+04   0.126E+00 -.625E-01 0.168E+01   0.835E-05 0.115E-04 0.746E-06
   -.839E+01 0.317E+02 0.487E+02   0.853E+01 -.317E+02 -.476E+02   -.126E+00 -.824E-01 -.108E+01   -.331E-04 0.622E-05 -.792E-04
   -.470E+02 0.537E+02 -.246E+04   0.462E+02 -.529E+02 0.246E+04   0.837E+00 -.848E+00 -.122E+01   0.306E-04 -.388E-04 -.625E-04
   0.268E+00 0.121E+00 0.482E+04   -.173E+00 -.637E-01 -.482E+04   -.718E-01 -.542E-01 0.229E+01   0.181E-04 0.126E-04 -.507E-04
   0.379E+01 -.143E+01 0.250E+04   -.401E+01 0.157E+01 -.250E+04   0.172E+00 -.103E+00 0.140E+01   0.136E-04 0.247E-04 0.422E-04
   0.145E+01 0.282E+00 0.344E+02   -.140E+01 -.229E+00 -.318E+02   -.479E-01 -.499E-01 -.255E+01   -.541E-04 0.581E-04 0.658E-04
   0.809E+00 -.204E+00 0.482E+04   -.690E+00 0.977E-01 -.482E+04   -.991E-01 0.985E-01 0.218E+01   0.134E-04 0.161E-04 0.302E-04
   0.828E+00 0.342E+01 0.250E+04   -.825E+00 -.368E+01 -.250E+04   0.364E-03 0.196E+00 0.140E+01   0.211E-04 0.996E-05 0.534E-04
   0.219E+02 -.227E+02 0.483E+02   -.218E+02 0.227E+02 -.472E+02   -.124E+00 -.381E-01 -.111E+01   0.191E-04 -.444E-04 0.344E-04
   0.166E+01 0.293E+00 0.482E+04   -.164E+01 -.239E+00 -.482E+04   0.471E-03 -.402E-01 0.215E+01   0.610E-04 -.768E-06 0.560E-04
   0.412E+01 0.658E-01 0.250E+04   -.413E+01 -.234E+00 -.250E+04   0.992E-02 0.134E+00 0.169E+01   0.157E-04 -.213E-05 0.214E-04
   0.224E+02 -.984E+01 0.160E+02   -.226E+02 0.964E+01 -.156E+02   0.150E+00 0.210E+00 -.399E+00   -.232E-04 -.158E-05 -.163E-04
   0.218E+02 -.698E+02 -.246E+04   -.215E+02 0.687E+02 0.246E+04   -.278E+00 0.114E+01 -.123E+01   0.669E-05 -.129E-03 -.793E-05
   -.704E+02 -.162E+02 -.477E+04   0.708E+02 0.149E+02 0.478E+04   -.374E+00 0.137E+01 -.242E+01   0.678E-04 -.133E-03 0.223E-04
   0.117E+01 0.140E+01 0.482E+04   -.111E+01 -.142E+01 -.482E+04   -.423E-01 0.244E-01 0.216E+01   0.314E-04 0.555E-04 0.525E-04
   0.539E+01 0.380E+01 0.250E+04   -.544E+01 -.384E+01 -.250E+04   0.377E-01 0.325E-01 0.172E+01   0.555E-04 0.214E-04 0.451E-04
   0.370E+01 0.240E+02 0.181E+02   -.392E+01 -.240E+02 -.177E+02   0.220E+00 0.273E-01 -.390E+00   0.957E-05 -.584E-04 -.413E-04
   0.435E+00 -.133E+01 -.249E+04   -.539E+00 0.124E+01 0.249E+04   0.103E+00 0.860E-01 -.116E+01   0.495E-04 -.643E-05 -.112E-03
   -.310E+02 -.610E+02 -.479E+04   0.301E+02 0.621E+02 0.479E+04   0.903E+00 -.101E+01 -.253E+01   -.147E-04 0.227E-04 0.568E-04
   0.566E-01 0.915E-01 0.482E+04   -.119E+00 -.130E+00 -.482E+04   0.431E-01 0.203E-01 0.224E+01   0.853E-05 -.425E-05 0.251E-04
   -.152E+01 0.798E+00 0.250E+04   0.159E+01 -.841E+00 -.250E+04   -.578E-01 0.313E-01 0.216E+01   0.598E-04 -.227E-04 0.529E-05
   -.218E+02 0.988E+01 0.340E+02   0.217E+02 -.980E+01 -.339E+02   0.135E+00 -.701E-01 -.128E+00   0.193E-04 -.235E-04 -.869E-04
   -.231E+02 0.401E+01 -.251E+04   0.226E+02 -.375E+01 0.251E+04   0.502E+00 -.268E+00 -.118E+01   0.128E-04 -.205E-04 0.191E-05
   -.681E+01 -.168E+02 -.491E+04   0.455E+01 0.180E+02 0.491E+04   0.228E+01 -.120E+01 -.205E+01   -.185E-04 0.101E-03 0.104E-04
   -.402E+00 -.522E+00 0.482E+04   0.192E+00 0.493E+00 -.482E+04   0.168E+00 0.170E-01 0.220E+01   -.259E-05 -.104E-04 -.494E-05
   -.999E+00 -.294E+01 0.250E+04   0.796E+00 0.298E+01 -.250E+04   0.165E+00 -.271E-01 0.175E+01   -.109E-04 0.155E-05 0.543E-05
   -.345E+02 -.665E+01 0.494E+02   0.343E+02 0.654E+01 -.485E+02   0.176E+00 0.977E-01 -.929E+00   -.251E-04 0.269E-04 -.907E-04
   -.784E+02 0.697E+01 -.247E+04   0.772E+02 -.658E+01 0.247E+04   0.122E+01 -.393E+00 -.122E+01   0.137E-04 0.713E-04 0.567E-04
   -.633E+00 -.323E+00 0.482E+04   0.501E+00 0.162E+00 -.482E+04   0.105E+00 0.132E+00 0.221E+01   -.926E-05 0.512E-05 -.355E-06
   -.320E+01 -.246E+01 0.250E+04   0.304E+01 0.237E+01 -.250E+04   0.113E+00 0.586E-01 0.175E+01   -.443E-04 -.183E-04 0.464E-04
   -.229E+02 -.271E+02 0.505E+02   0.227E+02 0.270E+02 -.496E+02   0.185E+00 0.113E+00 -.904E+00   -.607E-04 -.285E-04 -.205E-04
   -.784E+02 -.447E+02 -.245E+04   0.769E+02 0.438E+02 0.245E+04   0.147E+01 0.845E+00 -.175E+01   -.448E-04 -.209E-04 0.267E-05
   -.636E-01 -.798E-02 0.482E+04   0.693E-03 -.317E-01 -.482E+04   0.304E-01 0.347E-01 0.223E+01   0.216E-05 0.103E-04 0.302E-04
   -.344E+01 -.262E+00 0.250E+04   0.339E+01 0.680E-01 -.250E+04   0.421E-01 0.149E+00 0.176E+01   -.105E-04 -.101E-04 0.220E-04
   -.319E+01 -.242E+02 0.333E+02   0.318E+01 0.240E+02 -.332E+02   0.505E-02 0.140E+00 -.129E+00   -.236E-04 -.460E-05 -.617E-04
   -.360E+02 -.727E+02 -.247E+04   0.357E+02 0.715E+02 0.247E+04   0.274E+00 0.125E+01 -.122E+01   -.328E-04 -.628E-04 -.465E-04
   -.255E+02 -.283E+01 -.490E+04   0.254E+02 0.259E+00 0.491E+04   0.784E-01 0.259E+01 -.205E+01   -.717E-04 -.777E-04 -.187E-04
[...]
   0.310E+02 -.103E+02 -.489E+04   -.303E+02 0.117E+02 0.489E+04   -.744E+00 -.146E+01 -.213E+01   0.177E-04 0.133E-03 0.440E-04
   -.177E+02 -.504E+02 -.436E+04   0.186E+02 0.516E+02 0.436E+04   -.831E+00 -.121E+01 -.179E+00   -.173E-04 0.348E-04 0.240E-04
   0.119E+02 0.911E+01 -.215E+04   -.115E+02 -.885E+01 0.216E+04   -.440E+00 -.257E+00 -.154E+01   0.105E-04 0.739E-04 -.394E-04
   -.588E+02 0.215E+02 -.435E+04   0.603E+02 -.214E+02 0.436E+04   -.144E+01 -.136E+00 -.175E+00   0.939E-04 0.299E-04 0.467E-06
   0.181E+02 -.616E+02 -.437E+04   -.188E+02 0.632E+02 0.437E+04   0.734E+00 -.169E+01 -.611E-01   -.590E-04 0.111E-03 0.933E-04
   -.135E+02 0.454E+01 -.216E+04   0.130E+02 -.418E+01 0.216E+04   0.486E+00 -.355E+00 -.147E+01   -.728E-04 0.103E-03 -.704E-04
   -.739E+01 0.112E+01 -.434E+04   0.756E+01 -.104E+01 0.434E+04   -.163E+00 -.761E-01 0.131E+01   -.619E-04 0.592E-04 0.670E-04
   -.467E+01 -.122E+02 -.216E+04   0.474E+01 0.116E+02 0.216E+04   -.637E-01 0.615E+00 -.148E+01   -.102E-03 -.201E-04 -.700E-04
   -.543E+02 0.494E+02 -.435E+04   0.553E+02 -.509E+02 0.435E+04   -.105E+01 0.148E+01 -.725E-01   0.163E-04 -.727E-04 -.769E-05
   0.469E+02 -.130E-01 -.438E+04   -.484E+02 -.136E+00 0.438E+04   0.152E+01 0.150E+00 -.103E+00   0.135E-04 0.664E-04 0.290E-04
   0.189E+02 0.427E+02 -.438E+04   -.197E+02 -.440E+02 0.438E+04   0.868E+00 0.122E+01 -.106E+00   -.381E-04 -.125E-03 -.522E-04
   -.104E+03 0.165E+03 -.226E+04   0.127E+03 -.203E+03 0.229E+04   -.229E+02 0.387E+02 -.291E+02   0.398E-05 0.659E-05 0.183E-03
   0.709E+02 -.129E+03 -.154E+04   -.743E+02 0.135E+03 0.153E+04   0.343E+01 -.578E+01 0.914E+01   0.616E-05 -.141E-04 0.984E-04
   0.294E+02 -.528E+02 -.388E+03   -.317E+02 0.568E+02 0.391E+03   0.227E+01 -.392E+01 -.231E+01   -.185E-05 0.370E-05 0.394E-04
   0.172E+02 -.292E+02 0.643E+01   -.159E-11 0.453E-11 0.824E-11   -.172E+02 0.292E+02 -.654E+01   -.955E-05 -.654E-05 0.333E-03

 POSITION                                       TOTAL-FORCE (eV/Angst)
     -0.00000      1.49510      1.26122         0.022989      0.002338      0.188734
      1.29479      0.74755      3.78366        -0.003658      0.060753     -0.063571
      0.00263      1.49873      6.13482        -0.006317      0.002511     -0.003806
      1.29332      0.80203      8.40069        -0.000050     -0.002025      0.005521
     -1.29480      3.73775      1.26122         0.004206      0.016338      0.182677
     -0.00001      2.99020      3.78366         0.064784      0.039153     -0.048901
     -1.29139      3.73961      6.13520         0.000261     -0.007666     -0.003991
     -2.58960      5.98040      1.26122         0.003173     -0.000891      0.127831
     -1.29481      5.23285      3.78366         0.044315     -0.034150     -0.063544
     -2.58580      5.98462      6.11314        -0.002714     -0.000726     -0.001051
     -1.25223      5.20585      8.40589        -0.000654      0.000253      0.007352
     -2.49333      5.91992     10.89870        -0.005186      0.002801     -0.000554
     -3.88440      8.22306      1.26122        -0.022317     -0.008269      0.125054
     -2.58961      7.47551      3.78366        -0.048259      0.020473     -0.160848
     -3.88871      8.22026      6.18019        -0.001857      0.000872     -0.003834
     -2.58775      7.47223      8.49036         0.002737     -0.003087      0.003022
     -3.88812      8.22178     11.42691        -0.000653     -0.003005      0.011248
     -5.17920     10.46571      1.26122         0.002526     -0.002595      0.135949
     -3.88441      9.71816      3.78366        -0.005395     -0.055822     -0.157897
     -5.17409     10.46660      6.11119         0.000929     -0.003636      0.001766
     -3.88341      9.71957      8.48467        -0.002072      0.006756     -0.004203
     -5.17854     10.56816     10.85541         0.001024     -0.004199     -0.000645
      2.58959      1.49510      1.26122         0.001668      0.032263      0.157099
      3.88439      0.74755      3.78366        -0.022364      0.021492     -0.129192
      2.58954      1.49716      6.13708         0.008530      0.007192      0.000068
      3.88900      0.75949      8.39605        -0.003406      0.003317      0.000603
      1.29479      3.73775      1.26122         0.022579      0.003442      0.192995
      2.58959      2.99020      3.78366        -0.051870      0.040817     -0.024843
      1.29500      3.73740      6.18961         0.001641      0.003666      0.004973
     -0.00001      5.98040      1.26122         0.019284     -0.008137      0.150327
      1.29479      5.23285      3.78366         0.004213     -0.061747     -0.021943
      0.00044      5.98018      6.13909         0.011310      0.008176     -0.001613
     -1.29481      8.22305      1.26122         0.020579      0.013236      0.116553
     -0.00001      7.47550      3.78366         0.005820     -0.035366     -0.124669
     -1.30256      8.21768      6.11132         0.004871      0.001738      0.000757
      0.01034      7.47242      8.39933         0.001665      0.001321     -0.002578
     -1.28976      8.17790     10.87079         0.001920      0.000584      0.002139
     -2.58961     10.46571      1.26122         0.018015      0.007092      0.126905
     -1.29481      9.71816      3.78366        -0.010871     -0.007898     -0.191913
     -2.59712     10.46155      6.10783        -0.000589      0.002815      0.001665
     -1.29533      9.71778      8.41294         0.002322     -0.000009     -0.001196
     -2.62236     10.48637     10.86472         0.002007      0.003138      0.004652
      5.17919      1.49509      1.26122        -0.018927     -0.018779      0.138584
      6.47398      0.74754      3.78366         0.013678     -0.011423     -0.188842
      5.17543      1.49604      6.10648        -0.008885      0.005538      0.003315
      6.47686      0.74685      8.40637         0.002192     -0.004842     -0.001435
      5.09133      1.53574     10.85629        -0.001905     -0.000435      0.006150
      3.88439      3.73774      1.26122        -0.041279     -0.012463      0.164207
      5.17918      2.99019      3.78366        -0.039170      0.018247     -0.141917
      3.87823      3.73838      6.13483        -0.003170     -0.015142     -0.001265
      5.17213      2.98488      8.39946        -0.009190      0.002962     -0.002963
      2.58959      5.98040      1.26122        -0.027470     -0.028624      0.163331
      3.88438      5.23285      3.78366        -0.046899     -0.030343     -0.070066
      2.58652      5.97534      6.13446        -0.013442      0.001105     -0.000742
      3.83755      5.20759      8.39882         0.000775     -0.002265      0.005827
      1.29479      8.22305      1.26122        -0.032664     -0.004893      0.130098
      2.58958      7.47550      3.78366        -0.011166     -0.046382     -0.136740
      1.29345      8.21951      6.10905        -0.005632     -0.010024      0.003128
      2.57738      7.47140      8.40129        -0.002119     -0.005572     -0.002314
      1.28937      8.12058     10.85978        -0.000520     -0.000915      0.007022
[...]
      6.47835      9.72923      8.41150         0.000439      0.001777     -0.000069
      5.20494     10.50618     10.92244        -0.005067     -0.001242      0.003574
      0.00822      1.52576     10.49258         0.002470      0.003381      0.009430
     -0.01671      2.98244      8.29798        -0.002107     -0.001452      0.000945
     -1.26115      3.72411     10.49527         0.005407     -0.001073      0.007145
      2.57244      1.53443     10.49071         0.000242      0.003316      0.007906
      2.60390      2.98384      8.30030         0.003234      0.000575     -0.002279
      1.29150      3.73266     10.33721         0.001413      0.001051      0.008656
      1.29379      5.24913      8.30122         0.001848      0.001149     -0.002246
      0.02648      5.94101     10.49393         0.005161     -0.001919      0.004782
      3.84316      3.72559     10.49761        -0.003373      0.002186      0.005295
      2.56147      5.94654     10.49871        -0.000819     -0.003637      0.005506
     -3.33806      7.30683     14.16655        -0.005903      0.013001     -0.009088
     -3.85418      8.18254     13.50401         0.006654     -0.014456     -0.003858
     -4.35703      9.05002     14.02551         0.002805      0.002553      0.002723
    total drift:                                0.018465      0.010614     -0.104910

  FREE ENERGIE OF THE ION-ELECTRON SYSTEM (eV)
  free  energy   TOTEN  =      -212.57681226 eV

  energy  without entropy=     -212.54324720  energy(sigma->0) =     -212.56002973

 stress matrix after NEB project (eV)
     14.40057      0.72387     -0.08001
      0.72387     13.28941     -0.06032
     -0.08001     -0.06032    -17.73567
  FORCES: max atom, RMS     0.016925    0.005337
  FORCE total and by dimension    0.060382    0.015142
  Stress total and by dimension   26.450085   17.735667

 reached required accuracy - stopping structural energy minimisation