 vasp.6.3.2 27Jun22 (build Dec 21 2022 11:15:52) complex

 executed on Aspire2aVTSTlibbeefS date 2023.03.22  11:16:20

 INCAR:
   ENCUT = 400.000000
   SIGMA = 0.050000
   EDIFF = 1.00e-05
   EDIFFG = -2.00e-02
   ALGO = Fast
   GGA = PE
   PREC = Normal
   IBRION = 2
   ICHARG = 1
   IDIPOL = 3
   ISIF = 2
   ISMEAR = 0
   ISPIN = 2
   ISTART = 1
   ISYM = 0
   KPAR = 2
   NELM = 90
   NELMIN = 4
   NPAR = 4
   NSIM = 8
   NSW = 500
   NUPDOWN = -1
   IVDW = 11
   LCHARG = .FALSE.
   LDIPOL = .FALSE.
   LWAVE = .FALSE.
   LREAL = Auto

 POTCAR:    PAW_PBE Zn 06Sep2000
 POTCAR:    PAW_PBE Cu 22Jun2005
 POTCAR:    PAW_PBE O 08Apr2002
|           W    W    AA    RRRRR   N    N  II  N    N   GGGG   !!!           |
|           W    W   A  A   R    R  NN   N  II  NN   N  G    G  !!!           |
|           W    W  A    A  R    R  N N  N  II  N N  N  G       !!!           |
|           W WW W  AAAAAA  RRRRR   N  N N  II  N  N N  G  GGG   !            |
|           WW  WW  A    A  R   R   N   NN  II  N   NN  G    G                |
|           W    W  A    A  R    R  N    N  II  N    N   GGGG   !!!           |
|     You use a magnetic or noncollinear calculation, but did not specify     |
|     the initial magnetic moment with the MAGMOM tag. Note that a            |
|     default of 1 will be used for all atoms. This ferromagnetic setup       |
|     may break the symmetry of the crystal, in particular it may rule        |
|     out finding an antiferromagnetic solution. Thence, we recommend         |
|     setting the initial magnetic moment manually or verifying carefully     |
|     that this magnetic setup is desired.                                    |

 POTCAR:    PAW_PBE Zn 06Sep2000
   VRHFIN =Zn: d10 p2

   TITEL  = PAW_PBE Zn 06Sep2000
   POMASS =   65.390; ZVAL   =   12.000    mass and valenz
   ENMAX  =  276.723; ENMIN  =  207.542 eV

 POTCAR:    PAW_PBE Cu 22Jun2005
   VRHFIN =Cu: d10 p1

   TITEL  = PAW_PBE Cu 22Jun2005
   POMASS =   63.546; ZVAL   =   11.000    mass and valenz
   ENMAX  =  295.446; ENMIN  =  221.585 eV

 POTCAR:    PAW_PBE O 08Apr2002
   VRHFIN =O: s2p4

   TITEL  = PAW_PBE O 08Apr2002
   POMASS =   16.000; ZVAL   =    6.000    mass and valenz
   ENMAX  =  400.000; ENMIN  =  300.000 eV

 Optimization of the real space projectors (new method)

 maximal supplied QI-value         = 16.25
 optimisation between [QCUT,QGAM] = [ 10.24, 20.48] = [ 29.35,117.42] Ry
 Optimized for a Real-space Cutoff    1.38 Angstroem

   l    n(q)    QCUT    max X(q) W(low)/X(q) W(high)/X(q)  e(spline)
   2      7    10.239    46.356    0.21E-03    0.48E-03    0.10E-06
   2      7    10.239    41.843    0.21E-03    0.50E-03    0.10E-06
   0      8    10.239    48.958    0.37E-03    0.79E-04    0.11E-06
   0      8    10.239    32.776    0.35E-03    0.73E-04    0.10E-06
   1      8    10.239    17.787    0.49E-03    0.70E-03    0.14E-06
   1      8    10.239    14.435    0.42E-03    0.61E-03    0.13E-06
 Optimization of the real space projectors (new method)

[...]

   l    n(q)    QCUT    max X(q) W(low)/X(q) W(high)/X(q)  e(spline)
   2      9    10.239     4.610    0.85E-04    0.29E-03    0.14E-06
   2      9    10.239     8.522    0.15E-03    0.50E-03    0.27E-06
   0     10    10.239    51.609    0.45E-04    0.99E-04    0.10E-06
   0     10    10.239    27.747    0.40E-04    0.93E-04    0.97E-07
   1      9    10.239    20.408    0.15E-03    0.78E-05    0.15E-06
   1      9    10.239    13.425    0.13E-03    0.71E-05    0.14E-06
 Optimization of the real space projectors (new method)

 maximal supplied QI-value         = 24.76
 optimisation between [QCUT,QGAM] = [ 10.15, 20.30] = [ 28.85,115.39] Ry
 Optimized for a Real-space Cutoff    1.38 Angstroem

   l    n(q)    QCUT    max X(q) W(low)/X(q) W(high)/X(q)  e(spline)
   0      8    10.150    20.381    0.22E-03    0.32E-03    0.29E-06
   0      8    10.150    15.268    0.23E-03    0.35E-03    0.30E-06
   1      8    10.150     5.964    0.46E-03    0.53E-03    0.21E-06
   1      8    10.150     5.382    0.38E-03    0.45E-03    0.19E-06
  PAW_PBE Zn 06Sep2000                  :
  PAW_PBE Cu 22Jun2005                  :
  PAW_PBE O 08Apr2002                   :

 POSCAR: Zn Cu  O
  positions in cartesian coordinates
 exchange correlation table for  LEXCH =        8
   RHO(1)=    0.500       N(1)  =     2000
   RHO(2)=  100.500       N(2)  =     4000

 VTST: version 4.2, (08/11/21)

 CHAIN: initializing optimizer

 OPT: Using VASP Conjugate-Gradient optimizer
 CHAIN: Read ICHAIN            0

 POSCAR: Zn Cu  O
  positions in cartesian coordinates

 ion  position               nearest neighbor table
   1  0.067  0.083  0.053- 157 2.59  25 2.59  17 2.59 141 2.59  21 2.59   5 2.59   2 2.93  18 2.93
                            22 2.93
   2  0.133  0.042  0.160-  26 2.59 158 2.59 142 2.59  22 2.59   6 2.59  18 2.59   3 2.76   7 2.76
                           143 2.79   1 2.93   5 2.93 141 2.93
   3  0.067  0.083  0.259-  27 2.56  23 2.57 159 2.57 143 2.57   7 2.59  19 2.59   2 2.76  18 2.76
                            22 2.76  20 2.89   4 2.89
   4  0.145  0.056  0.366-   8 2.59  20 2.59 144 2.62 160 2.62  28 2.65  24 2.66   7 2.89   3 2.89
                           143 3.04
   5  0.267  0.083  0.053-  29 2.59 141 2.59  25 2.59 145 2.59   1 2.59   9 2.59   6 2.93   2 2.93
                            26 2.93
   6  0.333  0.042  0.160-  30 2.59 142 2.59  10 2.59  26 2.59 146 2.59   2 2.59   7 2.76  11 2.76
                           147 2.79   5 2.93   9 2.93 145 2.93
   7  0.267  0.083  0.259-  31 2.56  27 2.57 143 2.57 147 2.58   3 2.59  11 2.59   6 2.76   2 2.76
                            26 2.77   8 2.88   4 2.89
   8  0.345  0.056  0.366-   4 2.59  12 2.59 144 2.62 148 2.63  28 2.65  32 2.66   7 2.88  11 2.88
                           147 3.03
   9  0.467  0.083  0.053-  33 2.59 145 2.59  13 2.59  29 2.59 149 2.59   5 2.59  10 2.93   6 2.93
                            30 2.93
  10  0.533  0.042  0.160- 146 2.59  34 2.59   6 2.59  30 2.59 150 2.59  14 2.59  11 2.76  15 2.76
                           151 2.79   9 2.93  13 2.93 149 2.93
  11  0.467  0.083  0.259-  31 2.56  35 2.57 147 2.57 151 2.58  15 2.59   7 2.59  10 2.76   6 2.76
                            30 2.77   8 2.88  12 2.90
  12  0.545  0.056  0.367-   8 2.59  16 2.59 148 2.63 152 2.63  32 2.66  36 2.66  11 2.90  15 2.90

  13  0.667  0.083  0.053- 149 2.59  37 2.59   9 2.59  33 2.59 153 2.59  17 2.59  14 2.93  10 2.93
                            34 2.93
  14  0.733  0.042  0.160-  38 2.59 150 2.59  18 2.59  34 2.59 154 2.59  10 2.59  15 2.76  19 2.76
                           155 2.81  13 2.93  17 2.93 153 2.93
  15  0.667  0.083  0.259-  35 2.56  39 2.56 155 2.58 151 2.58  11 2.59  19 2.59  14 2.76  34 2.76
                            10 2.76  16 2.90  12 2.90
  16  0.745  0.056  0.367-  20 2.59  12 2.59 156 2.63 152 2.64  36 2.65  40 2.66  19 2.90  15 2.90
                           155 3.02
  17  0.867  0.083  0.053-  21 2.59 153 2.59   1 2.59  37 2.59 157 2.59  13 2.59  18 2.93  14 2.93
                            38 2.93
  18  0.933  0.042  0.160- 154 2.59  22 2.59  14 2.59  38 2.59 158 2.59   2 2.59   3 2.76  19 2.76
                           159 2.80  17 2.93   1 2.93 157 2.93
  19  0.867  0.083  0.259-  23 2.56  39 2.57 155 2.58 159 2.58   3 2.59  15 2.59  18 2.76  38 2.76
                            14 2.76  20 2.88  16 2.90
  20  0.945  0.056  0.366-  16 2.59   4 2.59 160 2.62 156 2.63  40 2.65  24 2.66  19 2.88   3 2.89
                           159 3.02
  21  0.067  0.208  0.053-  17 2.59  45 2.59  37 2.59  41 2.59   1 2.59  25 2.59  22 2.93  38 2.93
                            42 2.93
  22  0.133  0.167  0.160-  18 2.59  46 2.59  42 2.59   2 2.59  26 2.59  38 2.59   3 2.76  21 2.93
                            25 2.93   1 2.93  23 2.95  27 2.95
  23  0.065  0.206  0.269-  43 2.52  47 2.52  19 2.56   3 2.57  27 2.59  39 2.59  40 2.80  24 2.81
                            38 2.95  22 2.95  42 2.98
  24  0.148  0.185  0.373-  40 2.59  28 2.59  44 2.62  48 2.62  20 2.66   4 2.66  27 2.80  23 2.81

  25  0.267  0.208  0.053-   1 2.59  49 2.59  45 2.59   5 2.59  21 2.59  29 2.59  26 2.93  22 2.93
                            46 2.93
  26  0.333  0.167  0.160-  50 2.59   2 2.59  30 2.59  46 2.59   6 2.59  22 2.59   7 2.77  25 2.93
                            29 2.93   5 2.93  31 2.95  27 2.96
  27  0.264  0.206  0.269-  47 2.51  51 2.52   3 2.56   7 2.57  23 2.59  31 2.59  24 2.80  28 2.80
                            22 2.95  26 2.96  46 2.99
  28  0.348  0.185  0.373-  32 2.59  24 2.59  48 2.62  52 2.63   8 2.65   4 2.65  27 2.80  31 2.80

[...]

  37  0.867  0.208  0.053-  41 2.59  13 2.59  21 2.59  17 2.59  57 2.59  33 2.59  38 2.93  34 2.93
                            58 2.93
  38  0.933  0.167  0.160-  14 2.59  42 2.59  34 2.59  18 2.59  58 2.59  22 2.59  19 2.76  37 2.93
                            21 2.93  17 2.93  23 2.95  39 2.96
  39  0.865  0.206  0.269-  59 2.52  43 2.52  15 2.56  19 2.57  35 2.59  23 2.59  36 2.79  40 2.79
                            34 2.96  38 2.96  58 2.99
  40  0.948  0.185  0.373-  24 2.59  36 2.59  60 2.62  44 2.62  20 2.65  16 2.66  39 2.79  23 2.80

  41  0.067  0.333  0.053-  37 2.59  65 2.59  57 2.59  61 2.59  21 2.59  45 2.59  42 2.93  58 2.93
                            62 2.93
  42  0.133  0.292  0.160-  38 2.59  66 2.59  62 2.59  22 2.59  46 2.59  58 2.59  47 2.69  43 2.69
                            41 2.93  45 2.93  21 2.93  23 2.98
  43  0.061  0.326  0.257-  23 2.52  39 2.52  64 2.54  59 2.59  47 2.59  63 2.63  67 2.64  42 2.69
                            58 2.70  62 2.81
  44  0.136  0.295  0.420- 174 2.53 175 2.54  60 2.58  48 2.59  24 2.62  40 2.62 173 2.73  68 2.82
                            64 2.82
  45  0.267  0.333  0.053-  21 2.59  69 2.59  65 2.59  25 2.59  41 2.59  49 2.59  46 2.93  42 2.93
                            66 2.93
  46  0.333  0.292  0.160-  70 2.59  22 2.59  50 2.59  66 2.59  26 2.59  42 2.59  47 2.68  51 2.69
                            45 2.93  49 2.93  25 2.93  27 2.99
  47  0.261  0.325  0.257-  27 2.51  23 2.52  68 2.55  51 2.59  43 2.59  71 2.64  67 2.64  46 2.68
                            42 2.69  66 2.81
  48  0.337  0.295  0.420- 175 2.54 190 2.54  52 2.59  44 2.59  24 2.62  28 2.62 177 2.70  72 2.79
                            68 2.81
  49  0.467  0.333  0.053-  73 2.59  25 2.59  53 2.59  69 2.59  29 2.59  45 2.59  50 2.93  46 2.93
                            70 2.93
  50  0.533  0.292  0.160-  26 2.59  74 2.59  46 2.59  70 2.59  30 2.59  54 2.59  55 2.67  51 2.68
                            49 2.93  53 2.93  29 2.93  31 2.99
  51  0.461  0.325  0.257-  31 2.51  27 2.52  72 2.54  55 2.58  47 2.59  75 2.64  71 2.64  50 2.68
                            46 2.69  70 2.81
  52  0.536  0.294  0.422- 190 2.52 191 2.52  48 2.59  56 2.59  32 2.62  28 2.63 189 2.71  76 2.83
                            72 2.83
  53  0.667  0.333  0.053-  29 2.59  77 2.59  49 2.59  73 2.59  33 2.59  57 2.59  54 2.93  50 2.93
                            74 2.93
  54  0.733  0.292  0.160-  78 2.59  30 2.59  58 2.59  74 2.59  34 2.59  50 2.59  55 2.67  59 2.68
[...]
   0.568E+00 0.436E+02 0.405E+04   -.479E+00 -.435E+02 -.406E+04   -.856E-01 -.759E-01 0.250E+01   -.165E-04 0.352E-04 0.171E-03
   0.635E+00 0.125E+02 0.182E+04   -.659E+00 -.126E+02 -.182E+04   0.235E-01 0.581E-01 0.844E+00   0.113E-04 -.269E-04 0.145E-03
   0.243E+01 0.105E+03 -.624E+03   -.240E+01 -.105E+03 0.624E+03   -.368E-01 0.119E-02 -.578E+00   -.302E-04 -.166E-04 0.386E-04
   0.124E+01 0.168E+03 -.326E+04   -.118E+01 -.167E+03 0.326E+04   -.550E-01 -.760E+00 -.251E+01   0.360E-05 -.925E-04 -.429E-05
   0.203E+00 0.436E+02 0.405E+04   -.918E-01 -.436E+02 -.406E+04   -.113E+00 0.194E-02 0.252E+01   -.258E-06 0.250E-04 0.179E-03
   -.105E+01 0.130E+02 0.182E+04   0.975E+00 -.132E+02 -.182E+04   0.732E-01 0.721E-01 0.916E+00   0.611E-05 -.381E-05 0.144E-03
   0.401E+00 0.106E+03 -.626E+03   -.460E+00 -.106E+03 0.627E+03   0.600E-01 0.512E-02 -.661E+00   0.217E-05 -.929E-05 0.297E-04
   -.617E-01 0.167E+03 -.324E+04   0.961E-01 -.166E+03 0.325E+04   -.346E-01 -.791E+00 -.256E+01   -.295E-04 -.664E-04 -.182E-05
   -.363E+00 0.436E+02 0.405E+04   0.414E+00 -.436E+02 -.406E+04   -.842E-01 -.267E-02 0.249E+01   -.569E-05 0.161E-04 0.202E-03
   -.235E+01 0.130E+02 0.182E+04   0.227E+01 -.131E+02 -.182E+04   0.741E-01 0.131E+00 0.854E+00   0.267E-04 -.164E-04 0.132E-03
   -.401E+01 0.107E+03 -.625E+03   0.401E+01 -.107E+03 0.626E+03   0.297E-04 -.257E-02 -.643E+00   -.168E-05 -.141E-04 0.238E-04
   -.400E+00 0.168E+03 -.326E+04   0.484E+00 -.167E+03 0.327E+04   -.841E-01 -.749E+00 -.249E+01   -.582E-05 -.663E-04 -.882E-05
   -.253E+00 0.437E+02 0.405E+04   0.385E+00 -.436E+02 -.405E+04   -.133E+00 -.505E-01 0.241E+01   0.158E-04 0.246E-04 0.191E-03
   -.245E+00 0.148E+02 0.181E+04   0.230E+00 -.150E+02 -.181E+04   0.167E-01 0.117E+00 0.779E+00   0.149E-04 -.251E-04 0.121E-03
   -.484E+00 0.110E+03 -.625E+03   0.424E+00 -.110E+03 0.625E+03   0.590E-01 -.438E-01 -.553E+00   0.212E-04 -.190E-04 0.441E-04
   -.407E+00 0.169E+03 -.326E+04   0.537E+00 -.168E+03 0.326E+04   -.130E+00 -.799E+00 -.250E+01   0.154E-04 -.611E-04 -.445E-04
   0.347E+00 0.437E+02 0.405E+04   -.230E+00 -.435E+02 -.405E+04   -.111E+00 -.924E-01 0.248E+01   -.128E-04 0.126E-04 0.177E-03
   0.264E+01 0.141E+02 0.182E+04   -.258E+01 -.142E+02 -.182E+04   -.468E-01 0.103E+00 0.811E+00   -.360E-04 -.127E-04 0.149E-03
   0.238E+01 0.109E+03 -.623E+03   -.240E+01 -.109E+03 0.624E+03   0.257E-01 -.669E-01 -.605E+00   0.109E-04 -.466E-04 0.391E-04
   -.152E+00 0.168E+03 -.325E+04   0.207E+00 -.167E+03 0.325E+04   -.519E-01 -.803E+00 -.247E+01   -.348E-05 -.868E-04 -.217E-04
   0.430E+00 0.116E+03 0.407E+04   -.375E+00 -.116E+03 -.407E+04   -.629E-01 0.178E+00 0.246E+01   0.123E-04 0.882E-04 0.183E-03
   0.152E+01 0.141E+03 0.183E+04   -.143E+01 -.141E+03 -.183E+04   -.768E-01 -.221E+00 0.285E+00   -.924E-05 0.548E-04 0.109E-03
   -.292E+00 0.376E+03 -.685E+03   0.227E+00 -.376E+03 0.687E+03   0.653E-01 -.667E+00 -.148E+01   0.217E-04 0.563E-04 0.799E-05
   -.854E+00 0.799E+03 -.293E+04   0.818E+00 -.798E+03 0.293E+04   0.329E-01 -.661E+00 -.197E+01   -.760E-05 0.195E-04 -.638E-04
   0.594E+00 0.116E+03 0.407E+04   -.500E+00 -.116E+03 -.407E+04   -.926E-01 0.206E+00 0.252E+01   -.212E-04 0.807E-04 0.188E-03
   0.111E+01 0.142E+03 0.183E+04   -.110E+01 -.142E+03 -.183E+04   -.137E-01 -.203E+00 0.371E+00   0.114E-04 0.289E-04 0.114E-03
   0.360E+00 0.378E+03 -.693E+03   -.497E+00 -.377E+03 0.695E+03   0.137E+00 -.655E+00 -.145E+01   -.191E-04 0.756E-04 -.195E-04
   0.102E+00 0.795E+03 -.293E+04   -.171E+00 -.794E+03 0.293E+04   0.666E-01 -.605E+00 -.202E+01   -.323E-04 -.348E-04 -.978E-04
   0.662E-01 0.117E+03 0.407E+04   0.218E-01 -.117E+03 -.407E+04   -.839E-01 0.172E+00 0.258E+01   -.841E-05 0.645E-04 0.200E-03
   -.288E+01 0.143E+03 0.182E+04   0.300E+01 -.143E+03 -.182E+04   -.898E-01 -.270E+00 0.464E+00   -.439E-05 0.640E-05 0.107E-03
   -.486E-01 0.378E+03 -.687E+03   -.728E-01 -.378E+03 0.689E+03   0.122E+00 -.691E+00 -.146E+01   -.340E-04 0.870E-05 0.293E-06
   0.343E+01 0.798E+03 -.293E+04   -.326E+01 -.797E+03 0.293E+04   -.167E+00 -.604E+00 -.201E+01   0.155E-06 -.727E-04 -.926E-04
   -.537E+00 0.117E+03 0.407E+04   0.562E+00 -.117E+03 -.407E+04   -.208E-01 0.114E+00 0.259E+01   0.330E-05 0.748E-04 0.205E-03
   -.690E+00 0.142E+03 0.182E+04   0.711E+00 -.142E+03 -.182E+04   -.117E-01 -.357E+00 0.446E+00   0.628E-05 -.143E-04 0.104E-03
   -.961E+00 0.381E+03 -.704E+03   0.811E+00 -.381E+03 0.706E+03   0.151E+00 -.615E+00 -.144E+01   0.159E-04 -.128E-04 -.253E-04
   -.405E+00 0.800E+03 -.293E+04   0.542E+00 -.799E+03 0.293E+04   -.139E+00 -.648E+00 -.194E+01   0.673E-05 -.393E-04 -.456E-04
   -.271E+00 0.116E+03 0.407E+04   0.291E+00 -.117E+03 -.407E+04   -.240E-01 0.148E+00 0.253E+01   0.860E-06 0.585E-04 0.177E-03
   0.141E+01 0.141E+03 0.182E+04   -.137E+01 -.141E+03 -.182E+04   -.359E-01 -.289E+00 0.320E+00   0.274E-04 0.876E-05 0.129E-03
   -.228E+01 0.378E+03 -.692E+03   0.218E+01 -.377E+03 0.693E+03   0.101E+00 -.587E+00 -.141E+01   0.443E-04 0.184E-04 0.125E-04
   -.142E+01 0.795E+03 -.292E+04   0.148E+01 -.794E+03 0.292E+04   -.600E-01 -.688E+00 -.199E+01   0.101E-04 -.201E-04 -.748E-04
   -.110E+00 0.123E+03 0.411E+04   0.133E+00 -.123E+03 -.412E+04   -.342E-01 0.290E+00 0.254E+01   0.586E-05 0.142E-03 0.158E-03
   0.220E+01 0.265E+03 0.199E+04   -.227E+01 -.266E+03 -.199E+04   0.705E-01 0.693E+00 0.300E+00   0.272E-04 0.125E-03 0.705E-04
   -.175E+01 0.511E+03 -.184E+03   0.151E+01 -.513E+03 0.185E+03   0.230E+00 0.199E+01 -.128E+01   0.436E-04 0.120E-04 0.131E-03
   -.234E+01 0.150E+04 -.300E+04   0.225E+01 -.150E+04 0.300E+04   0.852E-01 0.125E+01 -.297E+01   0.817E-04 0.141E-03 0.296E-04
   0.607E+00 0.123E+03 0.411E+04   -.572E+00 -.123E+03 -.412E+04   -.313E-01 0.329E+00 0.235E+01   -.216E-04 0.114E-03 0.162E-03
   0.265E+01 0.267E+03 0.199E+04   -.270E+01 -.268E+03 -.199E+04   0.594E-01 0.788E+00 0.264E+00   -.258E-04 0.146E-03 0.923E-04
   0.449E+01 0.508E+03 -.178E+03   -.472E+01 -.510E+03 0.179E+03   0.235E+00 0.210E+01 -.128E+01   0.335E-04 0.118E-04 0.121E-03
   0.224E+01 0.150E+04 -.299E+04   -.228E+01 -.150E+04 0.299E+04   0.304E-01 0.103E+01 -.281E+01   -.108E-03 0.174E-03 0.524E-04
   0.445E+00 0.122E+03 0.412E+04   -.498E+00 -.123E+03 -.412E+04   0.349E-01 0.297E+00 0.229E+01   -.574E-05 0.127E-03 0.141E-03
   0.168E+01 0.269E+03 0.200E+04   -.172E+01 -.270E+03 -.200E+04   0.382E-01 0.723E+00 0.221E+00   -.111E-04 0.139E-03 0.925E-04
   0.425E+01 0.509E+03 -.177E+03   -.429E+01 -.511E+03 0.178E+03   0.408E-01 0.197E+01 -.135E+01   -.370E-04 0.430E-04 0.115E-03
   0.173E+01 0.152E+04 -.302E+04   -.171E+01 -.152E+04 0.303E+04   -.165E-01 0.105E+01 -.327E+01   -.857E-04 0.432E-04 -.639E-04
   -.175E+00 0.122E+03 0.412E+04   0.245E+00 -.123E+03 -.412E+04   -.567E-01 0.357E+00 0.235E+01   -.403E-05 0.139E-03 0.147E-03
   -.316E+01 0.271E+03 0.199E+04   0.320E+01 -.272E+03 -.199E+04   -.224E-01 0.749E+00 0.395E+00   -.958E-05 0.113E-03 0.787E-04
   -.133E+01 0.507E+03 -.165E+03   0.116E+01 -.509E+03 0.167E+03   0.159E+00 0.198E+01 -.133E+01   -.352E-04 0.619E-04 0.103E-03
   0.365E+00 0.150E+04 -.299E+04   -.302E+00 -.151E+04 0.300E+04   -.598E-01 0.105E+01 -.287E+01   0.736E-04 0.514E-04 0.176E-04
   -.619E+00 0.123E+03 0.411E+04   0.690E+00 -.123E+03 -.412E+04   -.760E-01 0.371E+00 0.245E+01   0.202E-05 0.131E-03 0.149E-03
   -.441E+01 0.268E+03 0.199E+04   0.445E+01 -.269E+03 -.199E+04   -.859E-02 0.692E+00 0.381E+00   0.300E-04 0.128E-03 0.648E-04
   -.496E+01 0.508E+03 -.166E+03   0.480E+01 -.510E+03 0.167E+03   0.165E+00 0.197E+01 -.129E+01   0.251E-04 0.326E-04 0.111E-03
   -.171E+01 0.151E+04 -.301E+04   0.192E+01 -.151E+04 0.301E+04   -.208E+00 0.123E+01 -.310E+01   0.264E-04 0.932E-04 0.189E-04
[...]
   0.148E+02 -.169E+04 -.327E+04   -.147E+02 0.168E+04 0.327E+04   -.150E+00 0.307E+01 -.223E+01   -.432E-04 0.771E-04 -.236E-03
   0.131E+01 0.573E+03 -.235E+04   -.131E+01 -.572E+03 0.235E+04   0.176E-02 -.120E+01 -.172E+01   -.152E-03 0.261E-04 -.237E-03
   0.654E+00 0.163E+04 -.342E+04   -.492E+00 -.163E+04 0.342E+04   -.160E+00 -.881E+00 0.875E-01   -.269E-03 -.488E-04 0.181E-04
   0.306E+01 0.164E+04 -.342E+04   -.315E+01 -.164E+04 0.342E+04   0.843E-01 -.959E+00 0.831E-01   0.870E-04 -.180E-03 -.196E-04
   0.301E+01 0.109E+04 -.389E+04   -.288E+01 -.109E+04 0.389E+04   -.127E+00 -.135E+01 0.486E+01   -.160E-03 -.826E-04 0.133E-03
   0.888E+00 0.571E+03 -.235E+04   -.775E+00 -.569E+03 0.236E+04   -.113E+00 -.133E+01 -.214E+01   0.131E-03 -.238E-04 -.245E-03
   0.509E+01 -.504E+03 -.251E+04   -.518E+01 0.503E+03 0.251E+04   0.956E-01 0.953E+00 -.206E+01   0.395E-04 0.207E-03 -.282E-03
   0.477E+01 0.144E+03 -.322E+04   -.482E+01 -.144E+03 0.322E+04   0.621E-01 0.943E-01 0.148E+01   0.137E-04 0.890E-04 -.102E-03
   0.899E+01 0.153E+03 -.321E+04   -.832E+01 -.152E+03 0.321E+04   -.678E+00 -.624E+00 0.632E+00   0.955E-04 0.293E-04 0.407E-04
   0.157E+02 0.111E+04 -.388E+04   -.162E+02 -.110E+04 0.388E+04   0.514E+00 -.104E+01 0.500E+01   0.149E-03 -.751E-04 0.105E-03
   0.516E+02 -.551E+03 -.395E+04   -.509E+02 0.551E+03 0.394E+04   -.716E+00 -.338E-01 0.512E+01   0.152E-03 0.133E-03 0.183E-03
   0.307E+02 -.146E+04 -.363E+04   -.318E+02 0.146E+04 0.362E+04   0.112E+01 0.836E+00 0.345E+01   0.423E-04 0.230E-03 -.547E-04
   0.740E-01 0.164E+04 -.341E+04   -.233E+00 -.164E+04 0.341E+04   0.162E+00 -.109E+01 0.118E+00   0.648E-04 -.111E-03 -.123E-04
   0.449E+00 -.683E+03 -.206E+04   -.482E+00 0.698E+03 0.207E+04   0.403E-01 -.147E+02 -.181E+02   0.970E-05 0.140E-03 0.405E-04
   0.225E+01 0.149E+02 -.270E+02   -.204E-11 0.102E-10 0.105E-10   -.230E+01 -.150E+02 0.267E+02   0.841E-05 0.297E-02 0.129E-01

 POSITION                                       TOTAL-FORCE (eV/Angst)
     -0.00000      1.49510      1.26122         0.003655      0.008039      0.057476
      1.29479      0.74755      3.78366        -0.000301     -0.034382     -0.134585
      0.00480      1.48965      6.10362         0.001181      0.001706      0.000645
      1.29893      1.00084      8.64320         0.001238      0.000319      0.001392
      2.58959      1.49510      1.26122        -0.001739      0.006557      0.060765
      3.88439      0.74755      3.78366        -0.004394     -0.043173     -0.120452
      2.59153      1.48910      6.10705         0.000847      0.001507     -0.001557
      3.88775      1.00173      8.63043        -0.000200      0.000646      0.000620
      5.17919      1.49509      1.26122        -0.032250     -0.003952      0.045847
      6.47398      0.74754      3.78366        -0.008685     -0.037995     -0.105894
      5.18304      1.48738      6.10570        -0.000684      0.001676     -0.001157
      6.47680      0.99889      8.65643        -0.000590      0.000660      0.002545
      7.76878      1.49509      1.26122        -0.000603      0.021299      0.055284
      9.06358      0.74754      3.78366         0.002136     -0.032888     -0.101954
      7.77118      1.49373      6.10684        -0.001000      0.000298     -0.000253
      9.06691      0.99964      8.64961         0.000604      0.004190      0.000800
     10.35838      1.49508      1.26122         0.005803      0.035920      0.056824
     11.65317      0.74753      3.78366         0.015901     -0.030683     -0.121843
     10.36240      1.49509      6.10724         0.003621      0.000233     -0.000614
     11.65681      1.00180      8.63777         0.002738      0.000255     -0.000186
     -1.29480      3.73775      1.26122        -0.007949     -0.007264     -0.017544
     -0.00001      2.99020      3.78366         0.016195      0.035389      0.056704
     -1.29516      3.69430      6.34064        -0.000712     -0.000470     -0.001773
      0.00269      3.31476      8.80186        -0.002561      0.003593     -0.000158
      1.29479      3.73775      1.26122         0.001938      0.002881     -0.011717
      2.58959      2.99020      3.78366         0.004824      0.029450      0.037866
      1.29227      3.69044      6.34615        -0.000368      0.001177     -0.003923
      2.59380      3.31318      8.79597        -0.001690      0.000945      0.001838
      3.88439      3.73774      1.26122         0.004285     -0.002791     -0.015760
      5.17918      2.99019      3.78366         0.025224      0.051273      0.037159
      3.88671      3.68620      6.33792         0.000653      0.002084     -0.000273
      5.18327      3.31469      8.79862         0.002392      0.001347      0.001037
      6.47398      3.73774      1.26122         0.003877      0.025808      0.013614
      7.76878      2.99019      3.78366         0.009027      0.052524      0.047693
      6.47711      3.69181      6.36343         0.000919     -0.000817      0.000105
      7.77626      3.31482      8.79924        -0.000969      0.002820      0.000052
      9.06358      3.73774      1.26122        -0.003919      0.001654     -0.009737
     10.35837      2.99019      3.78366         0.002209      0.045892      0.062908
      9.06339      3.69465      6.35170        -0.001374      0.000935     -0.000063
     10.36511      3.31416      8.79249        -0.001377      0.000331      0.001422
     -2.58960      5.98040      1.26122        -0.010240      0.019761      0.053982
     -1.29481      5.23285      3.78366         0.001044     -0.121037     -0.120593
     -2.58403      5.84006      6.06975        -0.001564     -0.000249     -0.005841
     -1.29278      5.29368      9.91912        -0.000383      0.002043     -0.005297
     -0.00001      5.98040      1.26122         0.004283      0.021090      0.067747
      1.29479      5.23285      3.78366         0.018015     -0.144008     -0.139799
      0.00883      5.83392      6.05869         0.000499      0.003541      0.002688
      1.29907      5.30032      9.90735        -0.001617      0.003527     -0.001510
      2.58959      5.98040      1.26122        -0.017562      0.007117      0.058471
      3.88438      5.23285      3.78366         0.007593     -0.151781     -0.151511
      2.59868      5.82654      6.05494         0.001144      0.003438      0.004263
      3.88892      5.28310      9.95333         0.001223      0.005540      0.000053
      5.17918      5.98039      1.26122         0.013201     -0.008083      0.049106
      6.47398      5.23284      3.78366         0.016135     -0.164205     -0.169628
      5.18299      5.82716      6.03979        -0.003409      0.003816      0.004381
      6.48207      5.29728      9.91108         0.003875      0.000264      0.002989
      7.76878      5.98039      1.26122        -0.004573     -0.003966      0.055365
      9.06357      5.23284      3.78366         0.026766     -0.130475     -0.145173
      7.77326      5.83471      6.04482         0.002095      0.003637      0.005473
      9.07481      5.28594      9.93002         0.001957      0.002184     -0.007027
[...]
      3.89825     10.09802     13.83561        -0.000559      0.011213      0.002676
     -6.45729     12.95697     10.69677        -0.000676      0.005277      0.000081
      3.89883      7.98130     10.15629         0.001404      0.004339      0.004661
      2.59549      6.45392     11.76842         0.000065      0.006739     -0.001628
      5.19020      6.45186     11.77223        -0.000685      0.006328     -0.002021
      3.89461      7.56500     13.57529         0.000159      0.010857     -0.001968
      6.49280      7.97913     10.17410         0.000045      0.002970      0.004109
      6.48953     10.48260     10.46665        -0.002007      0.002192     -0.001277
      5.18015      9.00636     12.02933         0.002822      0.005157      0.001329
     -5.16843      9.01570     12.06867        -0.000721      0.003496      0.000355
      6.48259      7.56083     13.57425         0.000592     -0.001160      0.000718
      6.43678     10.06311     13.85402         0.005555      0.003042     -0.002055
     -5.22163     11.58549     12.34604        -0.004652      0.006987     -0.000812
      7.77287      6.45330     11.76109         0.002933      0.000757     -0.000097
     -2.58519     11.19111     14.40914         0.007358      0.002389     -0.005611
    total drift:                               -0.040919     -0.046059     -0.307694

  FREE ENERGIE OF THE ION-ELECTRON SYSTEM (eV)
  free  energy   TOTEN  =      -367.04724855 eV

  energy  without entropy=     -367.01180851  energy(sigma->0) =     -367.02952853

 stress matrix after NEB project (eV)
     -7.57018     -9.78743     -0.15992
     -9.78743    -18.50624      1.71227
     -0.15992      1.71227    -20.14513
  FORCES: max atom, RMS     0.015970    0.004097
  FORCE total and by dimension    0.058090    0.012276
  Stress total and by dimension   31.672024   20.145128

 reached required accuracy - stopping structural energy minimisation